c turning on binary mode checking
c parsing input formula with 259840 variables and 1039924 clauses
c finished parsing, read 35605606 bytes from proof file
c detected empty clause; start verification via backward checking
c 60512 of 1039924 clauses in core                            
c 106132 of 751121 lemmas in core using 1386846 resolution steps
c 0 RAT lemmas in core; 15528 redundant literals in core lemmas
s VERIFIED
c verification time: 7.750 seconds
